 &CONTROL
   calculation   = 'vc-relax'
   etot_conv_thr = 1e-5
   forc_conv_thr = 1e-4
   outdir        = './tmp'
   prefix        = 'silicon'
   verbosity     = 'high'
   wf_collect    = .true.
 /

 &SYSTEM
   celldm(1)   = 10.21
   ecutrho     = 240.0
   ecutwfc     = 30.0
   ibrav       = 2
   nat         = 2
   ntyp        = 1
   occupations = 'fixed'
 /

 &ELECTRONS
   conv_thr    = 1e-8
   mixing_beta = 0.7
 /

 &IONS
 /

 &CELL
 /

ATOMIC_SPECIES 
    Si  28.086  Si.pbe-n-rrkjus_psl.1.0.0.UPF

ATOMIC_POSITIONS alat
  Si       0.000000000000   0.000000000000   0.000000000000
  Si       0.250000000000   0.250000000000   0.250000000000

K_POINTS automatic
  6   6   6   0   0   0 
