&CONTROL
  calculation = 'bands',
  prefix = 'nb3s4',
  outdir = './tmp',
  verbosity = 'high',
  disk_io = 'low'
/

&SYSTEM
  ibrav = 0,
  nat = 14,
  ntyp = 2,
  ecutwfc = 60.0,
  ecutrho = 450.0,
  occupations = 'smearing',
  smearing = 'mv',
  degauss = 0.005,
  nbnd = 100
  nosym = .FALSE. ! If true, even symmetric k points will be computed
/

&ELECTRONS
  conv_thr = 1.0d-8,
  mixing_beta = 0.7
/

CELL_PARAMETERS angstrom
  9.674663  0.000829  -0.000000
  -4.838050  8.378091  0.000000
  0.000000  -0.000000  3.409891

ATOMIC_SPECIES
  Nb 92.906  Nb.pbe-spn-kjpaw_psl.1.0.0.UPF
  S 32.066  S.pbe-n-kjpaw_psl.1.0.0.UPF

ATOMIC_POSITIONS (crystal)
Nb               0.5137649642        0.8850031064        0.7500000000
Nb               0.6287619588        0.5137649644        0.2500000000
Nb               0.8850031054        0.3712380419        0.2500000000
Nb               0.1149968946        0.6287619581        0.7500000000
Nb               0.3712380412        0.4862350356        0.7500000000
Nb               0.4862350358        0.1149968936        0.2500000000
S                0.6524386328        0.7096546855        0.7500000000
S                0.9427849479        0.6524386332        0.2500000000
S                0.7096546848        0.0572150523        0.2500000000
S                0.2903453152        0.9427849477        0.7500000000
S                0.0572150521        0.3475613668        0.7500000000
S                0.3475613672        0.2903453145        0.2500000000
S                0.3333330000        0.6666670000        0.2500000000
S                0.6666670000        0.3333330000        0.7500000000


K_POINTS crystal_b
12                                ! number of lines containing path information, A-L and M-K are computed twice. so ignore 2nd one
0.000000  0.000000  0.000000  39  ! Γ
0.500000  0.000000  0.000000  23  ! M
0.333333  0.333333  0.000000  45  ! K
0.000000  0.000000  0.000000  94  ! Γ
0.000000  0.000000  0.500000  39  ! A
0.500000  0.000000  0.500000  23  ! L
0.333333  0.333333  0.500000  45  ! H
0.000000  0.000000  0.500000  1   ! A 
0.500000  0.000000  0.500000  94  ! L
0.500000  0.000000  0.000000  1   ! M 
0.333333  0.333333  0.000000  94  ! K
0.333333  0.333333  0.500000  1   ! H

