&CONTROL
    calculation = 'bands'
    prefix      = 'silicon'
    outdir      = './tmp'
    verbosity = 'high'     ! Increased output detail
/
&SYSTEM
    ibrav       = 2
    celldm(1)   = 10.21
    nat         = 2
    ntyp        = 1
    ecutwfc     = 30.0
    nbnd        = 8       ! Include extra empty bands
    nosym       = .false. ! Ensure symmetry is enabled
/
&ELECTRONS
    diagonalization = 'david'
    conv_thr       = 1e-8
/
ATOMIC_SPECIES
 Si  28.086  Si.pbe-n-rrkjus_psl.1.0.0.UPF

ATOMIC_POSITIONS alat
 Si 0.00 0.00 0.00
 Si 0.25 0.25 0.25

K_POINTS crystal_b
10                         ! Number of high-symmetry points
0.0   0.0   0.0    40      ! Γ
0.5   0.0   0.5    40      ! X
0.5   0.25  0.75   40      ! W
0.375 0.375 0.75   40      ! K
0.0   0.0   0.0    40      ! Γ
0.5   0.5   0.5    40      ! L
0.625 0.25  0.625  40      ! U
0.5   0.25  0.75   40      ! W
0.5   0.5   0.5    40      ! L
0.375 0.375 0.75   40      ! K

