&BANDS
    prefix   = 'silicon'
    outdir   = './tmp'
    filband  = 'bands.dat'
    lsym     = .true.     ! Key for correct k-path normalization
/

