&CONTROL
    calculation   = 'nscf'          ! Non-self-consistent calculation
    prefix        = 'silicon'        ! Must match SCF prefix
    outdir        = './tmp'          ! Directory with SCF output
    verbosity     = 'high'           ! Detailed output
/
&SYSTEM
    ibrav         = 2                ! FCC lattice (ibrav=2 for cubic Si)
    celldm(1)     = 10.21            ! Lattice constant in Bohr (~5.43 Å)
    nat           = 2                ! 2 Si atoms in unit cell
    ntyp          = 1                ! 1 atom type (Si)
    ecutwfc       = 30.0             ! Plane-wave cutoff (Ry)
    nbnd          = 8                ! Include extra bands for unoccupied states
    occupations   = 'tetrahedra'     ! For accurate DOS (or 'smearing' for metals)
/
&ELECTRONS
    conv_thr      = 1e-8             ! Convergence threshold
    diagonalization = 'david'        ! Diagonalization method
/
ATOMIC_SPECIES
 Si  28.086  Si.pbe-n-rrkjus_psl.1.0.0.UPF  ! PBE pseudopotential

ATOMIC_POSITIONS alat
 Si 0.00 0.00 0.00                   ! Fractional coordinates
 Si 0.25 0.25 0.25


K_POINTS automatic            ! Automatic k-point grid
 12 12 12 0 0 0               ! 12x12x12 Monkhorst-Pack grid

